c Standarized MaxSat Instance
c{
c "sha1sum": "9492b902fce57d3a14e856c628424568e6c69ad3",
c "nvars": 60,
c "ncls": 1200,
c "nhards": 0,
c "nhard_len_stats":
c    { "min": 0, "max": 0, "ave": 0.00,
c      "stddev": 0.00 },
c "nsofts": 1200,
c "nsoft_len_stats":
c    { "min": 2, "max": 2, "ave": 2.00,
c      "stddev": 0.00 },
c "nsoft_wts": 10,
c "soft_wt_stats":
c    { "min": 1, "max": 10, "ave": 5.69,
c      "stddev": 2.81 }
c}
c------------------------------------------------------------
c Generated after 1 tries
c Graph with 60 nodes and 600 edges, Max edges:1770
p wcnf 60 1200 6827
9 1 5 0
9 -1 -5 0
4 1 6 0
4 -1 -6 0
8 1 8 0
8 -1 -8 0
8 1 17 0
8 -1 -17 0
10 1 18 0
10 -1 -18 0
2 1 19 0
2 -1 -19 0
4 1 21 0
4 -1 -21 0
8 1 34 0
8 -1 -34 0
3 1 35 0
3 -1 -35 0
6 1 36 0
6 -1 -36 0
5 1 46 0
5 -1 -46 0
7 1 50 0
7 -1 -50 0
4 1 53 0
4 -1 -53 0
6 1 55 0
6 -1 -55 0
10 1 57 0
10 -1 -57 0
10 1 59 0
10 -1 -59 0
7 1 60 0
7 -1 -60 0
8 2 5 0
8 -2 -5 0
2 2 6 0
2 -2 -6 0
7 2 9 0
7 -2 -9 0
1 2 12 0
1 -2 -12 0
3 2 15 0
3 -2 -15 0
2 2 16 0
2 -2 -16 0
9 2 20 0
9 -2 -20 0
2 2 22 0
2 -2 -22 0
5 2 28 0
5 -2 -28 0
2 2 30 0
2 -2 -30 0
2 2 32 0
2 -2 -32 0
10 2 33 0
10 -2 -33 0
3 2 39 0
3 -2 -39 0
6 2 46 0
6 -2 -46 0
9 2 47 0
9 -2 -47 0
7 3 10 0
7 -3 -10 0
3 3 14 0
3 -3 -14 0
7 3 15 0
7 -3 -15 0
6 3 16 0
6 -3 -16 0
5 3 17 0
5 -3 -17 0
10 3 18 0
10 -3 -18 0
3 3 23 0
3 -3 -23 0
8 3 25 0
8 -3 -25 0
6 3 27 0
6 -3 -27 0
8 3 29 0
8 -3 -29 0
5 3 32 0
5 -3 -32 0
9 3 35 0
9 -3 -35 0
3 3 42 0
3 -3 -42 0
4 3 43 0
4 -3 -43 0
9 3 44 0
9 -3 -44 0
10 3 45 0
10 -3 -45 0
1 3 46 0
1 -3 -46 0
10 3 48 0
10 -3 -48 0
6 3 52 0
6 -3 -52 0
1 3 53 0
1 -3 -53 0
2 3 55 0
2 -3 -55 0
7 3 56 0
7 -3 -56 0
9 3 57 0
9 -3 -57 0
4 3 59 0
4 -3 -59 0
1 4 8 0
1 -4 -8 0
1 4 11 0
1 -4 -11 0
5 4 13 0
5 -4 -13 0
1 4 15 0
1 -4 -15 0
3 4 16 0
3 -4 -16 0
10 4 20 0
10 -4 -20 0
10 4 21 0
10 -4 -21 0
9 4 22 0
9 -4 -22 0
3 4 23 0
3 -4 -23 0
6 4 25 0
6 -4 -25 0
4 4 35 0
4 -4 -35 0
8 4 36 0
8 -4 -36 0
6 4 41 0
6 -4 -41 0
7 4 43 0
7 -4 -43 0
6 4 44 0
6 -4 -44 0
1 4 46 0
1 -4 -46 0
5 4 51 0
5 -4 -51 0
10 4 53 0
10 -4 -53 0
10 4 55 0
10 -4 -55 0
8 4 56 0
8 -4 -56 0
3 4 59 0
3 -4 -59 0
8 4 60 0
8 -4 -60 0
7 5 7 0
7 -5 -7 0
4 5 9 0
4 -5 -9 0
7 5 10 0
7 -5 -10 0
2 5 15 0
2 -5 -15 0
5 5 16 0
5 -5 -16 0
9 5 18 0
9 -5 -18 0
9 5 19 0
9 -5 -19 0
4 5 21 0
4 -5 -21 0
3 5 22 0
3 -5 -22 0
9 5 25 0
9 -5 -25 0
4 5 30 0
4 -5 -30 0
7 5 32 0
7 -5 -32 0
10 5 36 0
10 -5 -36 0
6 5 38 0
6 -5 -38 0
7 5 43 0
7 -5 -43 0
9 5 46 0
9 -5 -46 0
5 5 51 0
5 -5 -51 0
10 5 52 0
10 -5 -52 0
4 5 53 0
4 -5 -53 0
9 5 60 0
9 -5 -60 0
7 6 16 0
7 -6 -16 0
10 6 21 0
10 -6 -21 0
5 6 24 0
5 -6 -24 0
3 6 31 0
3 -6 -31 0
10 6 35 0
10 -6 -35 0
10 6 36 0
10 -6 -36 0
2 6 37 0
2 -6 -37 0
9 6 38 0
9 -6 -38 0
7 6 40 0
7 -6 -40 0
5 6 41 0
5 -6 -41 0
7 6 44 0
7 -6 -44 0
3 6 50 0
3 -6 -50 0
8 6 53 0
8 -6 -53 0
4 7 14 0
4 -7 -14 0
5 7 16 0
5 -7 -16 0
3 7 21 0
3 -7 -21 0
2 7 24 0
2 -7 -24 0
3 7 25 0
3 -7 -25 0
6 7 28 0
6 -7 -28 0
5 7 31 0
5 -7 -31 0
2 7 35 0
2 -7 -35 0
10 7 39 0
10 -7 -39 0
2 7 46 0
2 -7 -46 0
2 7 50 0
2 -7 -50 0
5 7 52 0
5 -7 -52 0
8 7 55 0
8 -7 -55 0
10 7 58 0
10 -7 -58 0
10 8 9 0
10 -8 -9 0
7 8 12 0
7 -8 -12 0
4 8 16 0
4 -8 -16 0
8 8 17 0
8 -8 -17 0
4 8 21 0
4 -8 -21 0
3 8 22 0
3 -8 -22 0
3 8 25 0
3 -8 -25 0
6 8 26 0
6 -8 -26 0
3 8 30 0
3 -8 -30 0
2 8 31 0
2 -8 -31 0
8 8 37 0
8 -8 -37 0
2 8 39 0
2 -8 -39 0
8 8 42 0
8 -8 -42 0
2 8 44 0
2 -8 -44 0
8 8 45 0
8 -8 -45 0
1 8 46 0
1 -8 -46 0
10 8 47 0
10 -8 -47 0
1 8 49 0
1 -8 -49 0
6 8 50 0
6 -8 -50 0
2 8 52 0
2 -8 -52 0
3 8 53 0
3 -8 -53 0
8 8 56 0
8 -8 -56 0
8 8 57 0
8 -8 -57 0
7 8 60 0
7 -8 -60 0
10 9 10 0
10 -9 -10 0
7 9 12 0
7 -9 -12 0
8 9 17 0
8 -9 -17 0
1 9 23 0
1 -9 -23 0
2 9 25 0
2 -9 -25 0
6 9 26 0
6 -9 -26 0
1 9 29 0
1 -9 -29 0
1 9 31 0
1 -9 -31 0
3 9 32 0
3 -9 -32 0
5 9 34 0
5 -9 -34 0
9 9 39 0
9 -9 -39 0
6 9 42 0
6 -9 -42 0
8 9 43 0
8 -9 -43 0
1 9 46 0
1 -9 -46 0
2 9 47 0
2 -9 -47 0
10 9 59 0
10 -9 -59 0
3 10 12 0
3 -10 -12 0
9 10 13 0
9 -10 -13 0
2 10 15 0
2 -10 -15 0
10 10 22 0
10 -10 -22 0
1 10 25 0
1 -10 -25 0
9 10 28 0
9 -10 -28 0
1 10 32 0
1 -10 -32 0
1 10 43 0
1 -10 -43 0
10 10 49 0
10 -10 -49 0
6 10 53 0
6 -10 -53 0
2 10 56 0
2 -10 -56 0
2 11 16 0
2 -11 -16 0
4 11 26 0
4 -11 -26 0
10 11 29 0
10 -11 -29 0
9 11 30 0
9 -11 -30 0
4 11 33 0
4 -11 -33 0
6 11 34 0
6 -11 -34 0
6 11 36 0
6 -11 -36 0
5 11 38 0
5 -11 -38 0
7 11 39 0
7 -11 -39 0
1 11 44 0
1 -11 -44 0
6 11 46 0
6 -11 -46 0
8 11 50 0
8 -11 -50 0
4 11 55 0
4 -11 -55 0
10 11 58 0
10 -11 -58 0
6 11 60 0
6 -11 -60 0
9 12 18 0
9 -12 -18 0
8 12 26 0
8 -12 -26 0
7 12 27 0
7 -12 -27 0
1 12 31 0
1 -12 -31 0
8 12 32 0
8 -12 -32 0
9 12 38 0
9 -12 -38 0
10 12 43 0
10 -12 -43 0
9 12 44 0
9 -12 -44 0
9 12 47 0
9 -12 -47 0
10 12 50 0
10 -12 -50 0
8 12 53 0
8 -12 -53 0
10 12 60 0
10 -12 -60 0
10 13 15 0
10 -13 -15 0
7 13 19 0
7 -13 -19 0
5 13 22 0
5 -13 -22 0
2 13 28 0
2 -13 -28 0
9 13 29 0
9 -13 -29 0
9 13 30 0
9 -13 -30 0
1 13 31 0
1 -13 -31 0
7 13 32 0
7 -13 -32 0
3 13 34 0
3 -13 -34 0
7 13 38 0
7 -13 -38 0
3 13 40 0
3 -13 -40 0
8 13 41 0
8 -13 -41 0
4 13 42 0
4 -13 -42 0
4 13 43 0
4 -13 -43 0
3 13 53 0
3 -13 -53 0
1 14 15 0
1 -14 -15 0
7 14 16 0
7 -14 -16 0
3 14 20 0
3 -14 -20 0
7 14 21 0
7 -14 -21 0
6 14 23 0
6 -14 -23 0
10 14 26 0
10 -14 -26 0
3 14 28 0
3 -14 -28 0
6 14 29 0
6 -14 -29 0
8 14 33 0
8 -14 -33 0
2 14 34 0
2 -14 -34 0
5 14 36 0
5 -14 -36 0
6 14 40 0
6 -14 -40 0
10 14 42 0
10 -14 -42 0
5 14 43 0
5 -14 -43 0
4 14 44 0
4 -14 -44 0
9 14 46 0
9 -14 -46 0
5 14 55 0
5 -14 -55 0
1 14 60 0
1 -14 -60 0
4 15 23 0
4 -15 -23 0
6 15 30 0
6 -15 -30 0
9 15 33 0
9 -15 -33 0
3 15 34 0
3 -15 -34 0
7 15 46 0
7 -15 -46 0
5 15 48 0
5 -15 -48 0
5 15 52 0
5 -15 -52 0
4 15 54 0
4 -15 -54 0
8 15 56 0
8 -15 -56 0
2 15 57 0
2 -15 -57 0
7 15 59 0
7 -15 -59 0
1 16 19 0
1 -16 -19 0
5 16 23 0
5 -16 -23 0
7 16 24 0
7 -16 -24 0
7 16 26 0
7 -16 -26 0
7 16 31 0
7 -16 -31 0
4 16 34 0
4 -16 -34 0
2 16 35 0
2 -16 -35 0
7 16 36 0
7 -16 -36 0
7 16 37 0
7 -16 -37 0
8 16 39 0
8 -16 -39 0
4 16 41 0
4 -16 -41 0
8 16 46 0
8 -16 -46 0
3 16 49 0
3 -16 -49 0
10 16 54 0
10 -16 -54 0
7 16 55 0
7 -16 -55 0
7 16 58 0
7 -16 -58 0
3 16 60 0
3 -16 -60 0
6 17 18 0
6 -17 -18 0
1 17 20 0
1 -17 -20 0
3 17 21 0
3 -17 -21 0
9 17 23 0
9 -17 -23 0
7 17 26 0
7 -17 -26 0
1 17 28 0
1 -17 -28 0
2 17 30 0
2 -17 -30 0
4 17 32 0
4 -17 -32 0
6 17 33 0
6 -17 -33 0
6 17 35 0
6 -17 -35 0
7 17 36 0
7 -17 -36 0
3 17 39 0
3 -17 -39 0
8 17 42 0
8 -17 -42 0
3 17 44 0
3 -17 -44 0
4 17 45 0
4 -17 -45 0
2 17 52 0
2 -17 -52 0
10 17 53 0
10 -17 -53 0
1 17 60 0
1 -17 -60 0
9 18 21 0
9 -18 -21 0
4 18 25 0
4 -18 -25 0
2 18 28 0
2 -18 -28 0
5 18 30 0
5 -18 -30 0
10 18 33 0
10 -18 -33 0
10 18 35 0
10 -18 -35 0
8 18 36 0
8 -18 -36 0
7 18 38 0
7 -18 -38 0
2 18 40 0
2 -18 -40 0
7 18 41 0
7 -18 -41 0
4 18 45 0
4 -18 -45 0
8 18 51 0
8 -18 -51 0
10 18 52 0
10 -18 -52 0
10 18 53 0
10 -18 -53 0
9 18 55 0
9 -18 -55 0
3 18 60 0
3 -18 -60 0
8 19 23 0
8 -19 -23 0
6 19 24 0
6 -19 -24 0
3 19 27 0
3 -19 -27 0
10 19 28 0
10 -19 -28 0
10 19 34 0
10 -19 -34 0
9 19 39 0
9 -19 -39 0
5 19 40 0
5 -19 -40 0
6 19 42 0
6 -19 -42 0
2 19 43 0
2 -19 -43 0
3 19 45 0
3 -19 -45 0
9 19 49 0
9 -19 -49 0
5 19 51 0
5 -19 -51 0
5 19 54 0
5 -19 -54 0
9 19 56 0
9 -19 -56 0
5 19 58 0
5 -19 -58 0
3 20 22 0
3 -20 -22 0
2 20 26 0
2 -20 -26 0
7 20 29 0
7 -20 -29 0
8 20 30 0
8 -20 -30 0
2 20 31 0
2 -20 -31 0
7 20 33 0
7 -20 -33 0
5 20 35 0
5 -20 -35 0
9 20 44 0
9 -20 -44 0
8 20 45 0
8 -20 -45 0
2 20 47 0
2 -20 -47 0
3 20 50 0
3 -20 -50 0
5 20 51 0
5 -20 -51 0
2 20 54 0
2 -20 -54 0
2 20 56 0
2 -20 -56 0
4 20 58 0
4 -20 -58 0
4 21 22 0
4 -21 -22 0
10 21 23 0
10 -21 -23 0
10 21 24 0
10 -21 -24 0
7 21 25 0
7 -21 -25 0
9 21 26 0
9 -21 -26 0
9 21 28 0
9 -21 -28 0
5 21 30 0
5 -21 -30 0
4 21 33 0
4 -21 -33 0
4 21 40 0
4 -21 -40 0
7 21 41 0
7 -21 -41 0
7 21 45 0
7 -21 -45 0
3 21 49 0
3 -21 -49 0
2 21 51 0
2 -21 -51 0
1 21 56 0
1 -21 -56 0
2 22 26 0
2 -22 -26 0
7 22 31 0
7 -22 -31 0
4 22 34 0
4 -22 -34 0
3 22 35 0
3 -22 -35 0
4 22 36 0
4 -22 -36 0
1 22 42 0
1 -22 -42 0
5 22 44 0
5 -22 -44 0
10 22 46 0
10 -22 -46 0
6 22 47 0
6 -22 -47 0
3 22 50 0
3 -22 -50 0
7 22 51 0
7 -22 -51 0
8 22 53 0
8 -22 -53 0
5 22 55 0
5 -22 -55 0
2 22 57 0
2 -22 -57 0
9 22 58 0
9 -22 -58 0
7 22 59 0
7 -22 -59 0
6 23 27 0
6 -23 -27 0
3 23 28 0
3 -23 -28 0
6 23 29 0
6 -23 -29 0
5 23 30 0
5 -23 -30 0
9 23 32 0
9 -23 -32 0
4 23 34 0
4 -23 -34 0
3 23 35 0
3 -23 -35 0
4 23 36 0
4 -23 -36 0
8 23 38 0
8 -23 -38 0
7 23 41 0
7 -23 -41 0
10 23 48 0
10 -23 -48 0
4 23 49 0
4 -23 -49 0
9 23 52 0
9 -23 -52 0
2 24 28 0
2 -24 -28 0
5 24 30 0
5 -24 -30 0
1 24 39 0
1 -24 -39 0
8 24 40 0
8 -24 -40 0
8 24 44 0
8 -24 -44 0
3 24 46 0
3 -24 -46 0
2 24 47 0
2 -24 -47 0
9 24 48 0
9 -24 -48 0
8 24 50 0
8 -24 -50 0
1 24 51 0
1 -24 -51 0
5 24 52 0
5 -24 -52 0
10 24 53 0
10 -24 -53 0
8 24 56 0
8 -24 -56 0
3 24 57 0
3 -24 -57 0
5 24 60 0
5 -24 -60 0
9 25 33 0
9 -25 -33 0
1 25 38 0
1 -25 -38 0
1 25 42 0
1 -25 -42 0
4 25 43 0
4 -25 -43 0
4 25 53 0
4 -25 -53 0
7 25 54 0
7 -25 -54 0
9 25 58 0
9 -25 -58 0
2 26 30 0
2 -26 -30 0
1 26 31 0
1 -26 -31 0
1 26 32 0
1 -26 -32 0
5 26 34 0
5 -26 -34 0
8 26 37 0
8 -26 -37 0
7 26 38 0
7 -26 -38 0
5 26 40 0
5 -26 -40 0
2 26 41 0
2 -26 -41 0
6 26 46 0
6 -26 -46 0
6 26 48 0
6 -26 -48 0
6 26 53 0
6 -26 -53 0
6 26 54 0
6 -26 -54 0
4 27 28 0
4 -27 -28 0
4 27 30 0
4 -27 -30 0
9 27 31 0
9 -27 -31 0
5 27 34 0
5 -27 -34 0
2 27 36 0
2 -27 -36 0
7 27 43 0
7 -27 -43 0
6 27 51 0
6 -27 -51 0
7 27 52 0
7 -27 -52 0
6 27 56 0
6 -27 -56 0
3 27 58 0
3 -27 -58 0
9 27 59 0
9 -27 -59 0
1 27 60 0
1 -27 -60 0
1 28 31 0
1 -28 -31 0
10 28 33 0
10 -28 -33 0
2 28 36 0
2 -28 -36 0
5 28 38 0
5 -28 -38 0
3 28 39 0
3 -28 -39 0
9 28 42 0
9 -28 -42 0
3 28 46 0
3 -28 -46 0
4 28 47 0
4 -28 -47 0
9 28 50 0
9 -28 -50 0
4 28 57 0
4 -28 -57 0
9 28 58 0
9 -28 -58 0
7 28 60 0
7 -28 -60 0
1 29 30 0
1 -29 -30 0
3 29 32 0
3 -29 -32 0
8 29 33 0
8 -29 -33 0
7 29 37 0
7 -29 -37 0
9 29 39 0
9 -29 -39 0
4 29 42 0
4 -29 -42 0
3 29 46 0
3 -29 -46 0
2 29 47 0
2 -29 -47 0
7 29 48 0
7 -29 -48 0
2 29 53 0
2 -29 -53 0
7 29 54 0
7 -29 -54 0
8 29 59 0
8 -29 -59 0
8 30 32 0
8 -30 -32 0
3 30 33 0
3 -30 -33 0
5 30 34 0
5 -30 -34 0
4 30 35 0
4 -30 -35 0
5 30 38 0
5 -30 -38 0
3 30 39 0
3 -30 -39 0
4 30 40 0
4 -30 -40 0
6 30 41 0
6 -30 -41 0
2 30 43 0
2 -30 -43 0
6 30 45 0
6 -30 -45 0
1 30 48 0
1 -30 -48 0
4 30 50 0
4 -30 -50 0
4 30 51 0
4 -30 -51 0
4 30 54 0
4 -30 -54 0
8 30 59 0
8 -30 -59 0
3 31 32 0
3 -31 -32 0
7 31 35 0
7 -31 -35 0
6 31 36 0
6 -31 -36 0
10 31 46 0
10 -31 -46 0
7 31 48 0
7 -31 -48 0
9 31 50 0
9 -31 -50 0
7 31 51 0
7 -31 -51 0
4 31 53 0
4 -31 -53 0
7 31 55 0
7 -31 -55 0
1 31 56 0
1 -31 -56 0
6 31 57 0
6 -31 -57 0
9 31 58 0
9 -31 -58 0
7 32 37 0
7 -32 -37 0
7 32 38 0
7 -32 -38 0
6 32 39 0
6 -32 -39 0
5 32 41 0
5 -32 -41 0
4 32 43 0
4 -32 -43 0
8 32 46 0
8 -32 -46 0
9 32 47 0
9 -32 -47 0
7 32 48 0
7 -32 -48 0
2 32 50 0
2 -32 -50 0
1 32 52 0
1 -32 -52 0
1 33 37 0
1 -33 -37 0
7 33 40 0
7 -33 -40 0
2 33 41 0
2 -33 -41 0
7 33 44 0
7 -33 -44 0
8 33 53 0
8 -33 -53 0
6 33 55 0
6 -33 -55 0
1 33 56 0
1 -33 -56 0
1 33 58 0
1 -33 -58 0
4 33 59 0
4 -33 -59 0
3 34 35 0
3 -34 -35 0
7 34 37 0
7 -34 -37 0
9 34 38 0
9 -34 -38 0
2 34 43 0
2 -34 -43 0
4 34 50 0
4 -34 -50 0
7 34 52 0
7 -34 -52 0
9 34 56 0
9 -34 -56 0
7 34 60 0
7 -34 -60 0
4 35 38 0
4 -35 -38 0
9 35 44 0
9 -35 -44 0
2 35 50 0
2 -35 -50 0
2 35 51 0
2 -35 -51 0
6 35 52 0
6 -35 -52 0
9 35 59 0
9 -35 -59 0
7 36 46 0
7 -36 -46 0
10 36 48 0
10 -36 -48 0
2 36 49 0
2 -36 -49 0
4 36 54 0
4 -36 -54 0
8 36 55 0
8 -36 -55 0
9 36 56 0
9 -36 -56 0
6 36 58 0
6 -36 -58 0
8 37 39 0
8 -37 -39 0
10 37 40 0
10 -37 -40 0
3 37 41 0
3 -37 -41 0
10 37 47 0
10 -37 -47 0
6 37 48 0
6 -37 -48 0
10 37 50 0
10 -37 -50 0
5 37 51 0
5 -37 -51 0
6 37 55 0
6 -37 -55 0
10 37 58 0
10 -37 -58 0
8 37 59 0
8 -37 -59 0
9 38 40 0
9 -38 -40 0
6 38 46 0
6 -38 -46 0
7 38 49 0
7 -38 -49 0
10 38 50 0
10 -38 -50 0
10 38 60 0
10 -38 -60 0
4 39 40 0
4 -39 -40 0
9 39 46 0
9 -39 -46 0
6 39 51 0
6 -39 -51 0
7 39 52 0
7 -39 -52 0
8 39 53 0
8 -39 -53 0
8 39 54 0
8 -39 -54 0
8 39 59 0
8 -39 -59 0
3 40 42 0
3 -40 -42 0
7 40 43 0
7 -40 -43 0
5 40 46 0
5 -40 -46 0
2 40 52 0
2 -40 -52 0
8 40 54 0
8 -40 -54 0
9 40 57 0
9 -40 -57 0
9 41 43 0
9 -41 -43 0
7 41 45 0
7 -41 -45 0
5 41 47 0
5 -41 -47 0
7 41 48 0
7 -41 -48 0
6 41 50 0
6 -41 -50 0
7 41 52 0
7 -41 -52 0
6 41 53 0
6 -41 -53 0
2 41 54 0
2 -41 -54 0
6 41 58 0
6 -41 -58 0
1 41 59 0
1 -41 -59 0
8 42 44 0
8 -42 -44 0
6 42 45 0
6 -42 -45 0
9 42 50 0
9 -42 -50 0
6 42 52 0
6 -42 -52 0
2 42 54 0
2 -42 -54 0
5 42 55 0
5 -42 -55 0
6 42 58 0
6 -42 -58 0
1 42 59 0
1 -42 -59 0
9 43 44 0
9 -43 -44 0
4 43 46 0
4 -43 -46 0
7 43 50 0
7 -43 -50 0
5 43 51 0
5 -43 -51 0
2 43 53 0
2 -43 -53 0
5 43 55 0
5 -43 -55 0
3 43 57 0
3 -43 -57 0
5 43 58 0
5 -43 -58 0
1 43 59 0
1 -43 -59 0
8 44 47 0
8 -44 -47 0
6 44 48 0
6 -44 -48 0
9 44 50 0
9 -44 -50 0
6 44 51 0
6 -44 -51 0
5 44 53 0
5 -44 -53 0
5 44 59 0
5 -44 -59 0
10 45 54 0
10 -45 -54 0
1 45 58 0
1 -45 -58 0
1 45 59 0
1 -45 -59 0
7 45 60 0
7 -45 -60 0
6 46 48 0
6 -46 -48 0
3 46 49 0
3 -46 -49 0
3 46 55 0
3 -46 -55 0
7 46 57 0
7 -46 -57 0
10 46 60 0
10 -46 -60 0
8 47 49 0
8 -47 -49 0
5 47 55 0
5 -47 -55 0
5 47 56 0
5 -47 -56 0
9 48 49 0
9 -48 -49 0
10 48 54 0
10 -48 -54 0
10 48 59 0
10 -48 -59 0
9 48 60 0
9 -48 -60 0
8 50 53 0
8 -50 -53 0
4 51 54 0
4 -51 -54 0
6 51 55 0
6 -51 -55 0
3 51 57 0
3 -51 -57 0
5 51 58 0
5 -51 -58 0
10 52 57 0
10 -52 -57 0
5 52 60 0
5 -52 -60 0
9 53 54 0
9 -53 -54 0
10 53 57 0
10 -53 -57 0
2 53 58 0
2 -53 -58 0
5 53 59 0
5 -53 -59 0
8 53 60 0
8 -53 -60 0
8 54 55 0
8 -54 -55 0
10 57 59 0
10 -57 -59 0
3 58 60 0
3 -58 -60 0
